[[8, 41, 19, 3, 18, 31, 17, 21, 42, 7, 2, 30, 23, 20, 50, 29, 16, 26, 47, 14, 52, 13], [27, 28, 12, 11, 51, 33, 43, 4, 25, 6, 5, 15, 24, 48, 46, 37, 38, 40, 39, 36, 35, 34, 44, 49, 22, 32, 45, 9, 10]]